(set-option :print-success false)
(set-logic QF_UF)
(declare-sort x118 0)
(declare-sort x142 0)
(declare-fun x127 () x142)
(declare-fun x83 () x142)
(declare-fun x50 (x142 x142) x142)
(declare-fun x52 () x142)
(declare-fun x28 () x142)
(declare-fun x121 () x142)
(assert (and (and (and (or (= x83 (x50 (x50 x121 x83) x121)) (or (= x83 (x50 (x50 x28 x83) x28)) (or (= x83 (x50 (x50 x83 x83) x83)) (or (= (x50 (x50 x127 x83) x127) x83) (= (x50 (x50 x52 x83) x52) x83))))) (and (or (or (= x127 (x50 (x50 x28 x127) x28)) (or (= x127 (x50 (x50 x83 x127) x83)) (or (= (x50 (x50 x52 x127) x52) x127) (= x127 (x50 (x50 x127 x127) x127))))) (= x127 (x50 (x50 x121 x127) x121))) (or (or (or (or (= x52 (x50 (x50 x52 x52) x52)) (= (x50 (x50 x127 x52) x127) x52)) (= x52 (x50 (x50 x83 x52) x83))) (= (x50 (x50 x28 x52) x28) x52)) (= x52 (x50 (x50 x121 x52) x121))))) (or (or (= (x50 (x50 x28 x28) x28) x28) (or (or (= x28 (x50 (x50 x52 x28) x52)) (= x28 (x50 (x50 x127 x28) x127))) (= x28 (x50 (x50 x83 x28) x83)))) (= (x50 (x50 x121 x28) x121) x28))) (or (= (x50 (x50 x121 x121) x121) x121) (or (or (= x121 (x50 (x50 x83 x121) x83)) (or (= (x50 (x50 x127 x121) x127) x121) (= x121 (x50 (x50 x52 x121) x52)))) (= x121 (x50 (x50 x28 x121) x28))))))
(assert (and (and (and (and (or (or (= (x50 (x50 x28 x127) x127) x28) (or (= (x50 (x50 x83 x127) x127) x83) (or (= x127 (x50 (x50 x127 x127) x127)) (= (x50 (x50 x52 x127) x127) x52)))) (= x121 (x50 (x50 x121 x127) x127))) (or (or (or (= x83 (x50 (x50 x83 x52) x52)) (or (= (x50 (x50 x52 x52) x52) x52) (= x127 (x50 (x50 x127 x52) x52)))) (= (x50 (x50 x28 x52) x52) x28)) (= (x50 (x50 x121 x52) x52) x121))) (or (or (= x28 (x50 (x50 x28 x83) x83)) (or (= (x50 (x50 x83 x83) x83) x83) (or (= x52 (x50 (x50 x52 x83) x83)) (= x127 (x50 (x50 x127 x83) x83))))) (= (x50 (x50 x121 x83) x83) x121))) (or (= (x50 (x50 x121 x28) x28) x121) (or (or (= (x50 (x50 x83 x28) x28) x83) (or (= (x50 (x50 x52 x28) x28) x52) (= x127 (x50 (x50 x127 x28) x28)))) (= x28 (x50 (x50 x28 x28) x28))))) (or (or (or (= (x50 (x50 x83 x121) x121) x83) (or (= x52 (x50 (x50 x52 x121) x121)) (= x127 (x50 (x50 x127 x121) x121)))) (= x28 (x50 (x50 x28 x121) x121))) (= (x50 (x50 x121 x121) x121) x121))))
(assert (and (or (= (x50 x121 (x50 x121 x121)) x121) (or (or (or (= x52 (x50 x121 (x50 x121 x52))) (= x127 (x50 x121 (x50 x121 x127)))) (= (x50 x121 (x50 x121 x83)) x83)) (= (x50 x121 (x50 x121 x28)) x28))) (and (or (or (= (x50 x28 (x50 x28 x28)) x28) (or (= (x50 x28 (x50 x28 x83)) x83) (or (= x127 (x50 x28 (x50 x28 x127))) (= (x50 x28 (x50 x28 x52)) x52)))) (= (x50 x28 (x50 x28 x121)) x121)) (and (or (= x121 (x50 x83 (x50 x83 x121))) (or (= (x50 x83 (x50 x83 x28)) x28) (or (= x83 (x50 x83 (x50 x83 x83))) (or (= (x50 x83 (x50 x83 x52)) x52) (= x127 (x50 x83 (x50 x83 x127))))))) (and (or (= x121 (x50 x127 (x50 x127 x121))) (or (or (or (= x52 (x50 x127 (x50 x127 x52))) (= (x50 x127 (x50 x127 x127)) x127)) (= (x50 x127 (x50 x127 x83)) x83)) (= (x50 x127 (x50 x127 x28)) x28))) (or (or (or (or (= (x50 x52 (x50 x52 x127)) x127) (= x52 (x50 x52 (x50 x52 x52)))) (= (x50 x52 (x50 x52 x83)) x83)) (= (x50 x52 (x50 x52 x28)) x28)) (= x121 (x50 x52 (x50 x52 x121)))))))))
(assert (and (and (and (and (= x52 (x50 (x50 x52 x52) x52)) (= (x50 (x50 x127 x127) x127) x127)) (= x83 (x50 (x50 x83 x83) x83))) (= (x50 (x50 x28 x28) x28) x28)) (= (x50 (x50 x121 x121) x121) x121)))
(assert (let ((x85 (x50 x52 x121)) (x109 (x50 x121 x52)) (x64 (x50 x121 x28)) (x154 (x50 x121 x121)) (x143 (x50 x127 x28)) (x41 (x50 x127 x121)) (x108 (x50 x83 x83)) (x135 (x50 x83 x127)) (x140 (x50 x127 x52)) (x101 (x50 x52 x83)) (x30 (x50 x127 x127)) (x89 (x50 x52 x28)) (x106 (x50 x127 x83)) (x25 (x50 x28 x127)) (x38 (x50 x28 x28)) (x123 (x50 x28 x121)) (x15 (x50 x28 x83)) (x138 (x50 x121 x83)) (x105 (x50 x83 x121)) (x84 (x50 x52 x127)) (x120 (x50 x121 x127)) (x56 (x50 x28 x52)) (x19 (x50 x52 x52)) (x27 (x50 x83 x28)) (x23 (x50 x83 x52))) (let ((x36 (= x28 x19)) (x102 (= x121 x27)) (x62 (= x28 x108)) (x55 (= x121 x140)) (x90 (= x140 x127)) (x71 (= x120 x121)) (x51 (= x85 x83)) (x67 (= x127 x101)) (x132 (= x135 x83)) (x100 (= x56 x127)) (x112 (= x85 x28)) (x129 (= x52 x154)) (x155 (= x127 x123)) (x133 (= x105 x83)) (x69 (= x25 x52)) (x32 (= x28 x101)) (x22 (= x28 x27)) (x74 (= x28 x138)) (x115 (= x121 x38)) (x4 (= x83 x123)) (x91 (= x52 x38)) (x42 (= x52 x108)) (x8 (= x121 x89)) (x79 (= x28 x105)) (x34 (= x101 x52)) (x149 (= x27 x52)) (x63 (= x52 x64)) (x57 (= x52 x85)) (x61 (= x89 x83)) (x131 (= x19 x52)) (x49 (= x143 x127)) (x134 (= x105 x127)) (x104 (= x83 x19)) (x98 (= x89 x28)) (x35 (= x56 x28)) (x103 (= x41 x28)) (x97 (= x23 x121)) (x26 (= x127 x15)) (x77 (= x106 x127)) (x53 (= x52 x138)) (x9 (= x27 x127)) (x43 (= x123 x52)) (x81 (= x127 x30)) (x107 (= x109 x52)) (x119 (= x123 x121)) (x11 (= x41 x52)) (x6 (= x127 x154)) (x136 (= x127 x135)) (x68 (= x28 x23)) (x75 (= x109 x121)) (x145 (= x101 x121)) (x54 (= x52 x105)) (x45 (= x83 x106)) (x147 (= x108 x121)) (x13 (= x83 x15)) (x128 (= x38 x83)) (x44 (= x28 x38)) (x156 (= x84 x127)) (x158 (= x28 x143)) (x37 (= x27 x83)) (x130 (= x19 x127)) (x31 (= x138 x127)) (x20 (= x101 x83)) (x60 (= x120 x52)) (x114 (= x23 x127)) (x94 (= x140 x83)) (x66 (= x127 x38)) (x21 (= x56 x83)) (x73 (= x30 x83)) (x70 (= x85 x121)) (x110 (= x106 x121)) (x137 (= x28 x154)) (x58 (= x28 x30)) (x122 (= x143 x83)) (x148 (= x127 x120)) (x153 (= x25 x28)) (x139 (= x83 x109)) (x48 (= x64 x127)) (x144 (= x52 x140)) (x126 (= x127 x89)) (x72 (= x56 x52)) (x65 (= x28 x15)) (x16 (= x83 x84)) (x24 (= x83 x25)) (x1 (= x109 x28)) (x12 (= x15 x121)) (x46 (= x121 x30)) (x82 (= x127 x109)) (x17 (= x121 x25)) (x80 (= x64 x83)) (x96 (= x121 x105)) (x151 (= x28 x120)) (x33 (= x52 x23)) (x2 (= x83 x41)) (x141 (= x135 x52)) (x59 (= x108 x127)) (x92 (= x41 x121)) (x47 (= x106 x52)) (x111 (= x135 x28)) (x157 (= x52 x30)) (x78 (= x85 x127)) (x117 (= x106 x28)) (x88 (= x121 x84)) (x150 (= x127 x41)) (x10 (= x108 x83)) (x113 (= x121 x56)) (x146 (= x52 x15)) (x87 (= x143 x52)) (x99 (= x64 x28)) (x5 (= x121 x154)) (x39 (= x121 x64)) (x40 (= x154 x83)) (x86 (= x28 x84)) (x7 (= x83 x120)) (x76 (= x83 x138)) (x124 (= x28 x123)) (x29 (= x52 x84)) (x152 (= x23 x83)) (x18 (= x19 x121)) (x95 (= x121 x138)) (x116 (= x135 x121)) (x3 (= x127 x25)) (x14 (= x143 x121)) (x125 (= x89 x52)) (x93 (= x140 x28))) (and (and (and (and (and (and (and (or (or (or x111 (or x86 x58)) x153) x151) (or (or (or x117 (or x93 x58)) x158) x103)) (and (and (or (or x122 (or (or x94 x73) x45)) x2) (or (or x24 (or (or x73 x16) x132)) x7)) (and (and (or x11 (or x87 (or (or x157 x144) x47))) (or (or (or (or x157 x29) x141) x69) x60)) (and (or (or x3 (or x136 (or x156 x81))) x148) (or (or x49 (or (or x90 x81) x77)) x150))))) (and (or (or (or x110 (or x46 x55)) x14) x92) (or (or x17 (or (or x88 x46) x116)) x71))) (and (and (or (or x8 (or x145 (or x18 x88))) x70) (or (or (or (or x55 x18) x97) x113) x75)) (and (and (and (or (or x21 (or (or x104 x94) x152)) x139) (or (or (or (or x104 x16) x20) x61) x51)) (and (and (or (or (or x114 (or x90 x130)) x100) x82) (or (or (or x67 (or x156 x130)) x126) x78)) (and (or x57 (or x125 (or x34 (or x131 x29)))) (or x107 (or (or x33 (or x131 x144)) x72))))) (and (or x112 (or x98 (or (or x86 x36) x32))) (or x1 (or (or (or x36 x93) x68) x35)))))) (and (and (or (or (or x147 (or x145 x110)) x12) x95) (or (or x102 (or (or x97 x116) x147)) x96)) (and (and (and (and (or (or x146 (or (or x47 x34) x42)) x53) (or (or (or x42 (or x141 x33)) x149) x54)) (and (or x31 (or (or (or x77 x67) x59) x26)) (or (or (or (or x114 x136) x59) x9) x134))) (and (or x133 (or (or (or x152 x132) x10) x37)) (or (or x13 (or (or x45 x20) x10)) x76))) (and (or (or (or (or x117 x32) x62) x65) x74) (or (or (or x62 (or x111 x68)) x22) x79))))) (and (and (or (or (or x12 (or x113 x17)) x115) x119) (or x39 (or x115 (or (or x14 x8) x102)))) (and (and (and (or x4 (or x128 (or x13 (or x21 x24)))) (or (or (or x37 (or x122 x61)) x128) x80)) (and (and (or x43 (or x91 (or (or x69 x72) x146))) (or (or x91 (or x149 (or x125 x87))) x63)) (and (or x155 (or x66 (or x26 (or x3 x100)))) (or x48 (or (or x9 (or x49 x126)) x66))))) (and (or (or (or x65 (or x35 x153)) x44) x124) (or x99 (or x44 (or x22 (or x158 x98)))))))) (and (and (or x5 (or (or (or x70 x92) x96) x119)) (or x5 (or x39 (or (or x71 x75) x95)))) (and (and (or (or (or (or x151 x1) x74) x99) x137) (or x137 (or x124 (or (or x103 x112) x79)))) (and (and (or x40 (or (or (or x51 x2) x133) x4)) (or (or (or (or x139 x7) x76) x80) x40)) (and (and (or x6 (or (or (or x150 x78) x134) x155)) (or x6 (or (or x31 (or x82 x148)) x48))) (and (or (or (or (or x57 x11) x54) x43) x129) (or (or x63 (or x53 (or x60 x107))) x129))))))))))
(assert (or (= (x50 x121 x121) x121) (or (= (x50 x28 x28) x28) (or (= (x50 x83 x83) x83) (or (= x52 (x50 x52 x52)) (= (x50 x127 x127) x127))))))
(assert (let ((x73 (x50 x83 x52)) (x29 (x50 x28 x83)) (x84 (x50 x52 x83)) (x130 (x50 x28 x52)) (x101 (x50 x28 x121)) (x143 (x50 x127 x121)) (x25 (x50 x52 x121)) (x58 (x50 x83 x83)) (x89 (x50 x121 x127)) (x120 (x50 x83 x127)) (x106 (x50 x127 x28)) (x46 (x50 x83 x28)) (x19 (x50 x28 x28)) (x85 (x50 x121 x52)) (x90 (x50 x28 x127)) (x131 (x50 x121 x28)) (x156 (x50 x83 x121)) (x81 (x50 x127 x127)) (x41 (x50 x52 x127)) (x135 (x50 x52 x28)) (x144 (x50 x121 x83)) (x140 (x50 x127 x83)) (x157 (x50 x52 x52)) (x30 (x50 x127 x52)) (x23 (x50 x121 x121))) (and (and (and (and (and (and (and (and (or (or (or (= x81 x83) (or (= x81 x52) (= x81 x127))) (= x28 x81)) (= x81 x121)) (or (= x30 x121) (or (= x28 x30) (or (= x30 x83) (or (= x30 x127) (= x52 x30)))))) (or (or (or (= x140 x83) (or (= x140 x52) (= x127 x140))) (= x28 x140)) (= x121 x140))) (or (or (or (= x83 x106) (or (= x106 x127) (= x106 x52))) (= x106 x28)) (= x106 x121))) (or (= x143 x121) (or (or (= x83 x143) (or (= x52 x143) (= x127 x143))) (= x143 x28)))) (and (or (= x25 x121) (or (= x28 x25) (or (or (= x25 x52) (= x25 x127)) (= x83 x25)))) (and (and (or (or (= x28 x84) (or (= x83 x84) (or (= x84 x52) (= x127 x84)))) (= x121 x84)) (and (or (= x121 x157) (or (= x28 x157) (or (= x83 x157) (or (= x157 x127) (= x157 x52))))) (or (= x41 x121) (or (= x41 x28) (or (= x41 x83) (or (= x41 x127) (= x52 x41))))))) (or (or (= x28 x135) (or (= x83 x135) (or (= x52 x135) (= x127 x135)))) (= x135 x121))))) (and (or (or (or (= x83 x156) (or (= x127 x156) (= x156 x52))) (= x156 x28)) (= x121 x156)) (and (or (= x46 x121) (or (= x28 x46) (or (= x46 x83) (or (= x52 x46) (= x127 x46))))) (and (or (or (= x28 x58) (or (or (= x58 x52) (= x127 x58)) (= x58 x83))) (= x58 x121)) (and (or (or (or (or (= x73 x52) (= x73 x127)) (= x83 x73)) (= x73 x28)) (= x121 x73)) (or (= x121 x120) (or (or (= x120 x83) (or (= x52 x120) (= x120 x127))) (= x28 x120)))))))) (and (and (and (and (or (or (= x28 x130) (or (= x83 x130) (or (= x130 x127) (= x52 x130)))) (= x130 x121)) (or (or (= x28 x90) (or (= x90 x83) (or (= x90 x127) (= x90 x52)))) (= x121 x90))) (or (= x29 x121) (or (= x29 x28) (or (or (= x29 x52) (= x127 x29)) (= x83 x29))))) (or (= x19 x121) (or (or (or (= x19 x52) (= x19 x127)) (= x83 x19)) (= x19 x28)))) (or (= x101 x121) (or (or (= x83 x101) (or (= x101 x127) (= x52 x101))) (= x28 x101))))) (and (and (and (or (or (or (= x83 x144) (or (= x52 x144) (= x127 x144))) (= x28 x144)) (= x121 x144)) (and (or (or (= x28 x89) (or (= x89 x83) (or (= x89 x127) (= x89 x52)))) (= x121 x89)) (or (or (= x28 x85) (or (or (= x85 x127) (= x52 x85)) (= x83 x85))) (= x121 x85)))) (or (= x131 x121) (or (= x28 x131) (or (= x131 x83) (or (= x52 x131) (= x127 x131)))))) (or (= x23 x121) (or (or (or (= x52 x23) (= x23 x127)) (= x23 x83)) (= x28 x23)))))))
(assert (let ((x85 (not (= x52 (x50 (x50 x121 x52) x121)))) (x131 (not (= x28 (x50 (x50 x121 x28) x121)))) (x144 (not (= x83 (x50 (x50 x121 x83) x121)))) (x29 (not (= (x50 (x50 x28 x83) x28) x83))) (x25 (not (= x121 (x50 (x50 x52 x121) x52)))) (x157 (not (= (x50 (x50 x52 x52) x52) x52))) (x120 (not (= x127 (x50 (x50 x83 x127) x83)))) (x140 (not (= x83 (x50 (x50 x127 x83) x127)))) (x90 (not (= x127 (x50 (x50 x28 x127) x28)))) (x143 (not (= (x50 (x50 x127 x121) x127) x121))) (x101 (not (= (x50 (x50 x28 x121) x28) x121))) (x84 (not (= x83 (x50 (x50 x52 x83) x52)))) (x135 (not (= (x50 (x50 x52 x28) x52) x28))) (x58 (not (= x83 (x50 (x50 x83 x83) x83)))) (x19 (not (= (x50 (x50 x28 x28) x28) x28))) (x46 (not (= (x50 (x50 x83 x28) x83) x28))) (x41 (not (= x127 (x50 (x50 x52 x127) x52)))) (x89 (not (= x127 (x50 (x50 x121 x127) x121)))) (x130 (not (= x52 (x50 (x50 x28 x52) x28)))) (x106 (not (= (x50 (x50 x127 x28) x127) x28))) (x73 (not (= (x50 (x50 x83 x52) x83) x52))) (x156 (not (= (x50 (x50 x83 x121) x83) x121))) (x30 (not (= (x50 (x50 x127 x52) x127) x52))) (x23 (not (= (x50 (x50 x121 x121) x121) x121))) (x81 (not (= (x50 (x50 x127 x127) x127) x127)))) (and (and (and (or (or (or (or x135 x106) x46) x19) x131) (and (and (or (or x130 (or x73 (or x157 x30))) x85) (or (or x90 (or x120 (or x81 x41))) x89)) (or x144 (or x29 (or (or x84 x140) x58))))) (or (or (or (or x25 x143) x156) x101) x23)) (and (and (and (or (or x46 (or x58 (or x120 x73))) x156) (and (or (or x106 (or (or x81 x30) x140)) x143) (or (or x135 (or x84 (or x41 x157))) x25))) (or (or (or x29 (or x130 x90)) x19) x101)) (or x23 (or (or (or x85 x89) x144) x131))))))
(assert (let ((x106 (x50 x28 x28)) (x143 (x50 x121 x121)) (x140 (x50 x83 x83)) (x30 (x50 x52 x52)) (x81 (x50 x127 x127))) (or (and (not (= x121 x143)) (and (not (= x106 x121)) (and (and (not (= x81 x121)) (not (= x121 x30))) (not (= x121 x140))))) (or (or (and (not (= x83 x143)) (and (and (and (not (= x83 x81)) (not (= x30 x83))) (not (= x83 x140))) (not (= x83 x106)))) (or (and (not (= x143 x52)) (and (and (not (= x140 x52)) (and (not (= x30 x52)) (not (= x52 x81)))) (not (= x106 x52)))) (and (and (and (not (= x127 x140)) (and (not (= x127 x81)) (not (= x30 x127)))) (not (= x106 x127))) (not (= x127 x143))))) (and (not (= x28 x143)) (and (not (= x106 x28)) (and (not (= x28 x140)) (and (not (= x81 x28)) (not (= x28 x30))))))))))
(assert (let ((x46 (x50 x28 x83)) (x130 (x50 x52 x28)) (x135 (x50 x28 x52)) (x73 (x50 x52 x83)) (x101 (x50 x121 x28)) (x58 (x50 x83 x83)) (x30 (x50 x52 x127)) (x140 (x50 x83 x127)) (x156 (x50 x121 x83)) (x144 (x50 x83 x121)) (x29 (x50 x83 x28)) (x25 (x50 x121 x52)) (x157 (x50 x52 x52)) (x23 (x50 x121 x121)) (x120 (x50 x127 x83)) (x84 (x50 x83 x52)) (x85 (x50 x52 x121)) (x90 (x50 x127 x28)) (x81 (x50 x127 x127)) (x19 (x50 x28 x28)) (x143 (x50 x121 x127)) (x106 (x50 x28 x127)) (x131 (x50 x28 x121)) (x89 (x50 x127 x121)) (x41 (x50 x127 x52))) (and (and (and (and (and (not (= x29 x144)) (and (not (= x58 x144)) (and (not (= x29 x58)) (and (and (not (= x29 x84)) (and (and (and (and (not (= x140 x84)) (not (= x140 x58))) (not (= x29 x140))) (not (= x144 x140))) (not (= x58 x84)))) (not (= x84 x144)))))) (and (and (not (= x130 x85)) (and (and (not (= x130 x73)) (and (not (= x157 x85)) (and (and (and (and (and (not (= x30 x73)) (not (= x30 x157))) (not (= x30 x130))) (not (= x30 x85))) (not (= x73 x157))) (not (= x130 x157))))) (not (= x85 x73)))) (and (and (and (and (not (= x89 x41)) (and (and (not (= x41 x120)) (and (not (= x81 x89)) (and (not (= x90 x81)) (and (not (= x81 x120)) (not (= x81 x41)))))) (not (= x90 x41)))) (not (= x120 x90))) (not (= x120 x89))) (not (= x89 x90))))) (and (not (= x19 x131)) (and (not (= x131 x46)) (and (and (and (not (= x135 x19)) (and (not (= x135 x46)) (and (and (and (not (= x106 x46)) (not (= x106 x135))) (not (= x19 x106))) (not (= x106 x131))))) (not (= x131 x135))) (not (= x46 x19)))))) (and (not (= x101 x23)) (and (not (= x23 x156)) (and (and (not (= x25 x23)) (and (not (= x101 x25)) (and (and (and (and (not (= x156 x143)) (not (= x25 x143))) (not (= x101 x143))) (not (= x143 x23))) (not (= x25 x156))))) (not (= x101 x156)))))) (and (and (not (= x23 x131)) (and (and (not (= x131 x144)) (and (not (= x85 x23)) (and (not (= x85 x131)) (and (not (= x144 x85)) (and (not (= x23 x89)) (and (and (not (= x89 x85)) (not (= x89 x144))) (not (= x89 x131)))))))) (not (= x23 x144)))) (and (and (not (= x101 x19)) (and (and (and (not (= x130 x101)) (and (and (and (not (= x90 x101)) (and (and (not (= x130 x90)) (not (= x29 x90))) (not (= x90 x19)))) (not (= x130 x29))) (not (= x130 x19)))) (not (= x19 x29))) (not (= x101 x29)))) (and (and (and (not (= x25 x135)) (and (and (and (not (= x157 x25)) (and (not (= x135 x157)) (and (not (= x84 x157)) (and (and (not (= x41 x135)) (and (not (= x41 x84)) (not (= x41 x157)))) (not (= x25 x41)))))) (not (= x84 x135))) (not (= x84 x25)))) (and (and (not (= x140 x143)) (and (and (not (= x30 x143)) (and (and (and (and (and (not (= x140 x81)) (not (= x81 x30))) (not (= x106 x81))) (not (= x81 x143))) (not (= x140 x30))) (not (= x106 x30)))) (not (= x140 x106)))) (not (= x106 x143)))) (and (not (= x156 x46)) (and (not (= x58 x156)) (and (not (= x58 x46)) (and (and (not (= x73 x46)) (and (not (= x73 x58)) (and (and (not (= x120 x46)) (and (not (= x73 x120)) (not (= x120 x58)))) (not (= x156 x120))))) (not (= x73 x156))))))))))))
(assert (or (or (or (or (not (= x52 (x50 x52 (x50 x52 x52)))) (not (= x127 (x50 x127 (x50 x127 x127))))) (not (= (x50 x83 (x50 x83 x83)) x83))) (not (= (x50 x28 (x50 x28 x28)) x28))) (not (= x121 (x50 x121 (x50 x121 x121))))))
(assert (and (and (and (and (and (and (not (= x83 x52)) (and (not (= x127 x121)) (and (not (= x127 x28)) (and (not (= x127 x52)) (not (= x83 x127)))))) (not (= x28 x52))) (not (= x121 x52))) (not (= x28 x83))) (not (= x83 x121))) (not (= x28 x121))))
(assert (let ((x114 (x50 x52 x52)) (x33 (x50 x28 x52)) (x152 (x50 x28 x83)) (x16 (x50 x127 x52)) (x56 (x50 x127 x127)) (x145 (x50 x121 x28)) (x86 (x50 x83 x127)) (x141 (x50 x52 x28)) (x132 (x50 x83 x28)) (x55 (x50 x121 x127)) (x45 (x50 x83 x121)) (x108 (x50 x52 x121)) (x20 (x50 x121 x83)) (x15 (x50 x83 x83)) (x69 (x50 x121 x121)) (x110 (x50 x28 x121)) (x104 (x50 x127 x83)) (x67 (x50 x52 x83)) (x116 (x50 x28 x28)) (x59 (x50 x83 x52)) (x93 (x50 x127 x28)) (x94 (x50 x52 x127)) (x27 (x50 x121 x52)) (x88 (x50 x127 x121)) (x36 (x50 x28 x127))) (let ((x143 (not (= x127 x86))) (x58 (not (= x127 x141))) (x71 (not (= x55 x121))) (x42 (not (= x52 x67))) (x18 (not (= x94 x52))) (x22 (not (= x83 x20))) (x30 (not (= x94 x127))) (x144 (not (= x127 x145))) (x46 (not (= x152 x127))) (x134 (not (= x93 x28))) (x77 (not (= x114 x52))) (x12 (not (= x83 x69))) (x54 (not (= x20 x28))) (x3 (not (= x52 x88))) (x89 (not (= x20 x127))) (x62 (not (= x132 x52))) (x10 (not (= x52 x36))) (x85 (not (= x45 x127))) (x64 (not (= x67 x83))) (x109 (not (= x52 x56))) (x65 (not (= x83 x88))) (x37 (not (= x83 x152))) (x82 (not (= x104 x28))) (x115 (not (= x114 x28))) (x96 (not (= x145 x121))) (x73 (not (= x33 x127))) (x97 (not (= x52 x116))) (x125 (not (= x86 x83))) (x24 (not (= x15 x83))) (x60 (not (= x152 x28))) (x76 (not (= x56 x121))) (x84 (not (= x67 x127))) (x81 (not (= x56 x127))) (x130 (not (= x127 x55))) (x122 (not (= x33 x83))) (x98 (not (= x83 x108))) (x44 (not (= x83 x45))) (x32 (not (= x52 x152))) (x146 (not (= x56 x83))) (x51 (not (= x114 x121))) (x38 (not (= x94 x83))) (x14 (not (= x56 x28))) (x120 (not (= x127 x93))) (x13 (not (= x93 x83))) (x11 (not (= x28 x27))) (x74 (not (= x36 x121))) (x135 (not (= x15 x127))) (x57 (not (= x28 x108))) (x100 (not (= x27 x52))) (x72 (not (= x69 x52))) (x123 (not (= x83 x16))) (x7 (not (= x110 x28))) (x75 (not (= x88 x121))) (x48 (not (= x67 x28))) (x23 (not (= x127 x69))) (x113 (not (= x110 x83))) (x4 (not (= x104 x121))) (x153 (not (= x83 x116))) (x68 (not (= x33 x52))) (x91 (not (= x83 x59))) (x147 (not (= x52 x55))) (x117 (not (= x52 x141))) (x31 (not (= x28 x59))) (x80 (not (= x121 x94))) (x35 (not (= x83 x55))) (x34 (not (= x59 x52))) (x19 (not (= x127 x27))) (x99 (not (= x93 x121))) (x90 (not (= x127 x116))) (x87 (not (= x83 x114))) (x39 (not (= x121 x108))) (x150 (not (= x28 x15))) (x151 (not (= x121 x67))) (x40 (not (= x59 x121))) (x103 (not (= x33 x121))) (x5 (not (= x121 x69))) (x2 (not (= x121 x16))) (x139 (not (= x28 x69))) (x41 (not (= x104 x127))) (x129 (not (= x28 x145))) (x78 (not (= x36 x28))) (x107 (not (= x28 x132))) (x95 (not (= x27 x121))) (x17 (not (= x145 x83))) (x133 (not (= x121 x86))) (x63 (not (= x55 x28))) (x126 (not (= x52 x45))) (x6 (not (= x141 x28))) (x70 (not (= x45 x121))) (x138 (not (= x52 x15))) (x102 (not (= x28 x16))) (x26 (not (= x52 x108))) (x29 (not (= x127 x88))) (x149 (not (= x104 x83))) (x158 (not (= x83 x27))) (x47 (not (= x104 x52))) (x111 (not (= x93 x52))) (x53 (not (= x116 x28))) (x92 (not (= x121 x20))) (x156 (not (= x132 x127))) (x9 (not (= x145 x52))) (x128 (not (= x83 x132))) (x105 (not (= x86 x52))) (x21 (not (= x83 x36))) (x79 (not (= x152 x121))) (x154 (not (= x88 x28))) (x25 (not (= x127 x36))) (x131 (not (= x127 x110))) (x155 (not (= x28 x33))) (x1 (not (= x121 x15))) (x49 (not (= x52 x20))) (x112 (not (= x141 x121))) (x101 (not (= x127 x108))) (x136 (not (= x52 x16))) (x61 (not (= x141 x83))) (x140 (not (= x127 x16))) (x43 (not (= x45 x28))) (x66 (not (= x52 x110))) (x157 (not (= x127 x59))) (x106 (not (= x127 x114))) (x137 (not (= x121 x116))) (x119 (not (= x110 x121))) (x148 (not (= x28 x86))) (x124 (not (= x132 x121))) (x8 (not (= x28 x94)))) (or (and (and (and (or x96 x119) (and (or x92 x70) (and (or x71 x75) (or x39 x95)))) (or x5 x5)) (and (and (and (and (or x124 x79) (and (and (or x133 x4) (or x40 x151)) (or x1 x1))) (or x92 x70)) (and (and (or x71 x75) (and (and (and (or x76 x76) (or x2 x80)) (or x133 x4)) (or x74 x99))) (and (or x39 x95) (and (or x112 x103) (and (and (or x80 x2) (or x51 x51)) (or x151 x40)))))) (and (or x96 x119) (and (or x137 x137) (and (and (or x112 x103) (or x99 x74)) (or x79 x124)))))) (or (or (or (and (and (and (or x131 x144) (and (and (or x46 x156) (and (or x73 x58) (or x120 x25))) (or x90 x90))) (and (and (and (or x29 x130) (and (and (and (or x81 x81) (or x30 x140)) (or x143 x41)) (or x25 x120))) (and (and (and (or x157 x84) (and (or x106 x106) (or x140 x30))) (or x58 x73)) (or x19 x101))) (and (and (or x46 x156) (and (and (or x157 x84) (or x143 x41)) (or x135 x135))) (or x85 x89)))) (and (or x23 x23) (and (and (or x85 x89) (and (or x130 x29) (or x19 x101))) (or x131 x144)))) (and (and (and (and (and (and (or x10 x111) (and (and (or x109 x109) (or x18 x136)) (or x47 x105))) (or x3 x147)) (and (and (and (and (or x77 x77) (or x136 x18)) (or x34 x42)) (or x117 x68)) (or x100 x26))) (and (or x49 x126) (and (and (or x138 x138) (and (or x105 x47) (or x34 x42))) (or x32 x62)))) (and (or x66 x9) (and (and (or x32 x62) (and (or x117 x68) (or x10 x111))) (or x97 x97)))) (and (or x72 x72) (and (and (or x49 x126) (and (or x100 x26) (or x147 x3))) (or x66 x9))))) (and (and (and (or x17 x113) (and (or x44 x22) (and (or x65 x35) (or x158 x98)))) (or x12 x12)) (and (and (and (or x44 x22) (and (and (and (or x64 x91) (or x125 x149)) (or x24 x24)) (or x128 x37))) (and (and (or x35 x65) (and (and (or x149 x125) (and (or x38 x123) (or x146 x146))) (or x13 x21))) (and (or x98 x158) (and (or x61 x122) (and (and (or x87 x87) (or x38 x123)) (or x64 x91)))))) (and (or x17 x113) (and (and (and (or x13 x21) (or x61 x122)) (or x37 x128)) (or x153 x153)))))) (and (and (and (or x129 x7) (and (or x53 x53) (and (or x107 x60) (and (or x6 x155) (or x134 x78))))) (and (and (and (and (or x155 x6) (and (and (or x8 x102) (or x115 x115)) (or x48 x31))) (or x57 x11)) (and (and (or x78 x134) (and (and (or x102 x8) (or x14 x14)) (or x148 x82))) (or x63 x154))) (and (or x54 x43) (and (or x60 x107) (and (or x150 x150) (and (or x82 x148) (or x31 x48))))))) (and (and (and (or x43 x54) (and (or x57 x11) (or x154 x63))) (or x7 x129)) (or x139 x139))))))))
(check-sat)
(exit)
